Version identifier: 22.1.0.0 | 2022-03-09 | 1a383f8ce
CPXPARAM_Threads                                 1
CPXPARAM_MIP_Strategy_VariableSelect             3
CPXPARAM_TimeLimit                               600
Found incumbent of value 1.000000 after 0.00 sec. (0.61 ticks)
Tried aggregator 1 time.
MIP Presolve eliminated 323 rows and 1550 columns.
Reduced MIP has 1859 rows, 2171 columns, and 18505 nonzeros.
Reduced MIP has 2170 binaries, 0 generals, 0 SOSs, and 0 indicators.
Presolve time = 0.01 sec. (8.98 ticks)
Probing time = 0.00 sec. (4.48 ticks)
Tried aggregator 1 time.
Detecting symmetries...
Reduced MIP has 1859 rows, 2171 columns, and 18505 nonzeros.
Reduced MIP has 2170 binaries, 0 generals, 0 SOSs, and 0 indicators.
Presolve time = 0.01 sec. (8.57 ticks)
Probing time = 0.00 sec. (4.48 ticks)
Clique table members: 311.
MIP emphasis: balance optimality and feasibility.
MIP search method: dynamic search.
Parallel mode: none, using 1 thread.
Root relaxation solution time = 0.02 sec. (15.79 ticks)

        Nodes                                         Cuts/
   Node  Left     Objective  IInf  Best Integer    Best Bound    ItCnt     Gap

*     0+    0                            1.0000        0.0000           100.00%
      0     0        0.0000   146        1.0000        0.0000      582  100.00%
*     0+    0                            0.0000        0.0000             0.00%
      0     0        cutoff              0.0000        0.0000      582    0.00%
Elapsed time = 0.14 sec. (123.37 ticks, tree = 0.01 MB, solutions = 2)

Root node processing (before b&c):
  Real time             =    0.14 sec. (123.51 ticks)
Sequential b&c:
  Real time             =    0.00 sec. (0.00 ticks)
                          ------------
Total (root+branch&cut) =    0.14 sec. (123.51 ticks)
Primal:	0
Dual:	0
Status:	Optimal
Time:	0.15
Sequence:
	1
	4
	4
	9
	9
	9
	9
	9
	9
	9
	5
	9
	9
	9
	9
	5
	9
	1
	9
	9
	9
	9
	9
	9
	5
	9
	9
	5
	9
	9
	9
	5
	9
	9
	9
	9
	9
	9
	9
	9
	9
	9
	9
	9
	9
	9
	9
	9
	9
	9
	9
	9
	9
	9
	9
	9
	9
	9
	9
	9
	9
	9
	9
	9
	9
	9
	9
	9
	9
	9
	9
	9
	5
	9
	9
	9
	9
	9
	9
	9
	9
	9
	9
	9
	9
	9
	9
	9
	9
	6
	9
	9
	9
	9
	9
	9
	9
	0
	1
	4
	6
	0
	5
	9
	5
	0
	9
	1
	0
	1
	4
	4
	0
	5
	4
	1
	0
	5
	9
	0
	5
	9
	0
	5
	4
	1
	0
	1
	4
	0
	9
	5
	4
	9
	5
	9
	5
	9
	4
	5
	0
	4
	6
	0
	1
	9
	5
	0
	4
	1
	0
	5
	4
	1
	4
	0
	1
	4
	1
	9
	0
	1
	4
	5
	0
	6
	4
	0
	1
	4
	1
	0
	9
	4
	5
	0
	1
	4
	1
	0
	1
	4
	1
	0
	5
	9
	5
	0
	5
	4
	1
	0
	6
	4
	0
	5
	4
	0
	5
	4
	1
	4
	5
	0
	4
	5
	0
	5
	9
	0
	5
	9
	5
	4
	1
	4
	5
	0
	4
	1
	4
	1
	0
	5
	4
	1
	0
	1
	4
	0
	9
	5
	4
	1
	0
	4
	1
	4
	9
	2
	5
	4
	1
	9
	1
	0
	1
	9
	5
	0
	9
	9
	0
	5
	4
	0
	1
	4
	4
	1
	4
	5
	0
	5
	9
	1
	0
	5
	4
	1
	0
	1
	4
	1
	0
	9
	1
	0
	5
	4
	1
	0
	5
	4
	0
	1
	4
	4
	9
	6
	9
	0
	5
	9
	5
	4
	1
	0
	1
	4
	0
	5
	4
	1
	0
	4
	9
	5
	0
	4
